
Gurobi 8.1.1 (win64) logging started 11/27/19 02:38:07

Changed value of parameter LogFile to logs/miss/rlt/miss-06-30-1.log
   Prev: gurobi.log  Default: 
Changed value of parameter LogToConsole to 0
   Prev: 1  Min: 0  Max: 1  Default: 1
Changed value of parameter TimeLimit to 3600.0
   Prev: 1e+100  Min: 0.0  Max: 1e+100  Default: 1e+100
Optimize a model with 190647 rows, 63903 columns and 447679 nonzeros
Variable types: 0 continuous, 63903 integer (357 binary)
Coefficient statistics:
  Matrix range     [1e+00, 1e+00]
  Objective range  [1e+00, 1e+00]
  Bounds range     [1e+00, 1e+00]
  RHS range        [1e+00, 1e+00]
Presolve time: 2.64s
Presolved: 190647 rows, 63903 columns, 447679 nonzeros
Variable types: 0 continuous, 63903 integer (63903 binary)
Found heuristic solution: objective 8.0000000
Found heuristic solution: objective 7.0000000

Root simplex log...

Iteration    Objective       Primal Inf.    Dual Inf.      Time
    3073    1.0000079e+00   8.454545e+00   0.000000e+00      6s
    4163    1.1081163e+00   1.883784e+01   0.000000e+00     10s
    5163    1.2063552e+00   7.682540e+00   0.000000e+00     15s
    5993    1.2381031e+00   1.842078e+03   0.000000e+00     20s
    8283    1.2631623e+00   1.094389e+03   0.000000e+00     25s
   11667    1.2670117e+00   0.000000e+00   0.000000e+00     29s

Root relaxation: objective 1.267012e+00, 11667 iterations, 25.58 seconds
Total elapsed time = 30.07s

    Nodes    |    Current Node    |     Objective Bounds      |     Work
 Expl Unexpl |  Obj  Depth IntInf | Incumbent    BestBd   Gap | It/Node Time

     0     0    1.26701    0 3013    7.00000    1.26701  81.9%     -   37s
     0     0    1.38967    0 2001    7.00000    1.38967  80.1%     -   76s
     0     0    1.53400    0 2096    7.00000    1.53400  78.1%     -  176s
     0     0    1.53406    0 1982    7.00000    1.53406  78.1%     -  179s
     0     0    1.58239    0 2010    7.00000    1.58239  77.4%     -  192s
     0     0    1.58271    0 2036    7.00000    1.58271  77.4%     -  282s
     0     0    1.59590    0 2186    7.00000    1.59590  77.2%     -  296s
     0     0    1.59625    0 2132    7.00000    1.59625  77.2%     -  319s
     0     0    1.60783    0 2382    7.00000    1.60783  77.0%     -  333s
     0     0    1.60790    0 2384    7.00000    1.60790  77.0%     -  360s
     0     0    1.62104    0 2409    7.00000    1.62104  76.8%     -  379s
     0     0    1.62145    0 2364    7.00000    1.62145  76.8%     -  386s
     0     0    1.63428    0 2487    7.00000    1.63428  76.7%     -  408s
H    0     0                       6.0000000    1.63428  72.8%     -  443s
     0     0    1.63460    0 2544    6.00000    1.63460  72.8%     -  473s
     0     0    1.64190    0 2446    6.00000    1.64190  72.6%     -  496s
     0     0    1.64194    0 2437    6.00000    1.64194  72.6%     -  536s
     0     0    1.65183    0 2277    6.00000    1.65183  72.5%     -  567s
     0     0    1.65214    0 2272    6.00000    1.65214  72.5%     -  610s
     0     0    1.65960    0 2367    6.00000    1.65960  72.3%     -  640s
     0     0    1.65992    0 2336    6.00000    1.65992  72.3%     -  692s
     0     0    1.66585    0 2334    6.00000    1.66585  72.2%     -  726s
     0     0    1.66628    0 2370    6.00000    1.66628  72.2%     -  758s
     0     0    1.67225    0 2413    6.00000    1.67225  72.1%     -  797s
     0     0    1.67547    0 2420    6.00000    1.67547  72.1%     -  907s
     0     0    1.67552    0 2438    6.00000    1.67552  72.1%     -  968s
     0     0    1.67753    0 2475    6.00000    1.67753  72.0%     -  991s
     0     0    1.67764    0 2282    6.00000    1.67764  72.0%     - 1006s
     0     0    1.67944    0 2369    6.00000    1.67944  72.0%     - 1031s
     0     0    1.67952    0 2363    6.00000    1.67952  72.0%     - 1099s
     0     0    1.68151    0 2462    6.00000    1.68151  72.0%     - 1131s
     0     0    1.68155    0 2436    6.00000    1.68155  72.0%     - 1209s
     0     0    1.68273    0 2457    6.00000    1.68273  72.0%     - 1235s
     0     0    1.68289    0 2458    6.00000    1.68289  72.0%     - 1316s
     0     0    1.68464    0 2386    6.00000    1.68464  71.9%     - 1352s
     0     0    1.68468    0 2409    6.00000    1.68468  71.9%     - 1432s
     0     0    1.68662    0 2233    6.00000    1.68662  71.9%     - 1470s
     0     0    1.68860    0 2324    6.00000    1.68860  71.9%     - 1521s
     0     0    1.68862    0 2315    6.00000    1.68862  71.9%     - 1607s
     0     0    1.69055    0 2266    6.00000    1.69055  71.8%     - 1649s
     0     0    1.69057    0 2298    6.00000    1.69057  71.8%     - 1667s
     0     0    1.69233    0 2333    6.00000    1.69233  71.8%     - 1710s
     0     0    1.69235    0 2349    6.00000    1.69235  71.8%     - 1731s
     0     0    1.69373    0 2358    6.00000    1.69373  71.8%     - 1768s
     0     0    1.69375    0 2357    6.00000    1.69375  71.8%     - 1864s
     0     0    1.69542    0 2324    6.00000    1.69542  71.7%     - 1904s
     0     0    1.69543    0 2323    6.00000    1.69543  71.7%     - 1967s
     0     0    1.69744    0 2286    6.00000    1.69744  71.7%     - 2005s
     0     0    1.69744    0 2301    6.00000    1.69744  71.7%     - 2105s
     0     0    1.69901    0 2281    6.00000    1.69901  71.7%     - 2147s
     0     0    1.70016    0 2303    6.00000    1.70016  71.7%     - 2202s
     0     0    1.70019    0 2311    6.00000    1.70019  71.7%     - 2226s
     0     0    1.70176    0 2310    6.00000    1.70176  71.6%     - 2271s
     0     0    1.70179    0 2337    6.00000    1.70179  71.6%     - 2501s
     0     0    1.70325    0 2355    6.00000    1.70325  71.6%     - 2550s
     0     0    1.70421    0 2304    6.00000    1.70421  71.6%     - 2620s
     0     0    1.70421    0 2304    6.00000    1.70421  71.6%     - 2621s
     0     0    1.70421    0 2304    6.00000    1.70421  71.6%     - 3600s

Cutting planes:
  Gomory: 2
  MIR: 2
  Zero half: 198

Explored 1 nodes (227675 simplex iterations) in 3600.04 seconds
Thread count was 4 (of 4 available processors)

Solution count 3: 6 7 8 

Time limit reached
Best objective 6.000000000000e+00, best bound 2.000000000000e+00, gap 66.6667%
